backend/data/formal_work/formal_f036e8c3/assertions/formal_f036e8c3__03_assert_full_max/formal_f036e8c3__03_assert_full_max_bmc/model/design_smt2.smt2
; SMT-LIBv2 description generated by Yosys 0.63+184 (git sha1 240439bdb-dirty, aarch64-apple-darwin23.5-clang++ 18.1.8 -fPIC -O3)
; yosys-smt2-module fifo_checker
(declare-sort |fifo_checker_s| 0)
(declare-fun |fifo_checker_is| (|fifo_checker_s|) Bool)
; yosys-smt2-witness {"offset": 0, "path": ["$auto$async2sync.cc:116:execute$130"], "smtname": 0, "smtoffset": 0, "type": "reg", "width": 1}
(declare-fun |fifo_checker#0| (|fifo_checker_s|) (_ BitVec 1)) ; $auto$async2sync.cc:116:execute$130
; yosys-smt2-register $auto$async2sync.cc:116:execute$130 1
(define-fun |fifo_checker_n $auto$async2sync.cc:116:execute$130| ((state |fifo_checker_s|)) Bool (= ((_ extract 0 0) (|fifo_checker#0| state)) #b1))
; yosys-smt2-witness {"offset": 0, "path": ["$auto$async2sync.cc:107:execute$126"], "smtname": 1, "smtoffset": 0, "type": "reg", "width": 1}
(declare-fun |fifo_checker#1| (|fifo_checker_s|) (_ BitVec 1)) ; $auto$async2sync.cc:107:execute$126
; yosys-smt2-register $auto$async2sync.cc:107:execute$126 1
(define-fun |fifo_checker_n $auto$async2sync.cc:107:execute$126| ((state |fifo_checker_s|)) Bool (= ((_ extract 0 0) (|fifo_checker#1| state)) #b1))
(declare-fun |fifo_checker#2| (|fifo_checker_s|) (_ BitVec 4)) ; \count
(define-fun |fifo_checker#3| ((state |fifo_checker_s|)) Bool (= (|fifo_checker#2| state) #b1000)) ; $eq$formal_f036e8c3__03_assert_full_max_monitor.sv:69$17_Y
(declare-fun |fifo_checker#4| (|fifo_checker_s|) Bool) ; \full
(define-fun |fifo_checker#5| ((state |fifo_checker_s|)) Bool (not (or  (|fifo_checker#4| state) false))) ; $logic_not$formal_f036e8c3__03_assert_full_max_monitor.sv:69$18_Y
(define-fun |fifo_checker#6| ((state |fifo_checker_s|)) Bool (and (or  (|fifo_checker#3| state) false) (or  (|fifo_checker#5| state) false))) ; $logic_and$formal_f036e8c3__03_assert_full_max_monitor.sv:69$19_Y
(define-fun |fifo_checker#7| ((state |fifo_checker_s|)) (_ BitVec 1) (ite (|fifo_checker#6| state) #b1 #b0)) ; $procmux$88_Y
(declare-fun |fifo_checker#8| (|fifo_checker_s|) (_ BitVec 1)) ; \rst_n
(define-fun |fifo_checker#9| ((state |fifo_checker_s|)) (_ BitVec 1) (ite (= ((_ extract 0 0) (|fifo_checker#8| state)) #b1) (|fifo_checker#7| state) #b0)) ; \assert_full_max_EN
; yosys-smt2-wire assert_full_max_EN 1
(define-fun |fifo_checker_n assert_full_max_EN| ((state |fifo_checker_s|)) Bool (= ((_ extract 0 0) (|fifo_checker#9| state)) #b1))
(declare-fun |fifo_checker#10| (|fifo_checker_s|) (_ BitVec 1)) ; \empty
(define-fun |fifo_checker#11| ((state |fifo_checker_s|)) (_ BitVec 1) (ite (= ((_ extract 0 0) (|fifo_checker#10| state)) #b1) #b1 #b0)) ; $procmux$95_Y
(define-fun |fifo_checker#12| ((state |fifo_checker_s|)) (_ BitVec 1) (ite (= ((_ extract 0 0) (|fifo_checker#8| state)) #b1) (|fifo_checker#11| state) #b0)) ; \assume_no_read_empty_EN
; yosys-smt2-wire assume_no_read_empty_EN 1
(define-fun |fifo_checker_n assume_no_read_empty_EN| ((state |fifo_checker_s|)) Bool (= ((_ extract 0 0) (|fifo_checker#12| state)) #b1))
(define-fun |fifo_checker#13| ((state |fifo_checker_s|)) (_ BitVec 1) (ite (|fifo_checker#4| state) #b1 #b0)) ; $procmux$81_Y
(define-fun |fifo_checker#14| ((state |fifo_checker_s|)) (_ BitVec 1) (ite (= ((_ extract 0 0) (|fifo_checker#8| state)) #b1) (|fifo_checker#13| state) #b0)) ; \assume_no_write_full_EN
; yosys-smt2-wire assume_no_write_full_EN 1
(define-fun |fifo_checker_n assume_no_write_full_EN| ((state |fifo_checker_s|)) Bool (= ((_ extract 0 0) (|fifo_checker#14| state)) #b1))
(declare-fun |fifo_checker#15| (|fifo_checker_s|) Bool) ; \clk
; yosys-smt2-input clk 1
; yosys-smt2-wire clk 1
; yosys-smt2-clock clk posedge
; yosys-smt2-witness {"offset": 0, "path": ["\\clk"], "smtname": "clk", "smtoffset": 0, "type": "posedge", "width": 1}
; yosys-smt2-witness {"offset": 0, "path": ["\\clk"], "smtname": "clk", "smtoffset": 0, "type": "input", "width": 1}
(define-fun |fifo_checker_n clk| ((state |fifo_checker_s|)) Bool (|fifo_checker#15| state))
; yosys-smt2-input count 4
; yosys-smt2-wire count 4
; yosys-smt2-witness {"offset": 0, "path": ["\\count"], "smtname": "count", "smtoffset": 0, "type": "input", "width": 4}
(define-fun |fifo_checker_n count| ((state |fifo_checker_s|)) (_ BitVec 4) (|fifo_checker#2| state))
; yosys-smt2-input empty 1
; yosys-smt2-wire empty 1
; yosys-smt2-witness {"offset": 0, "path": ["\\empty"], "smtname": "empty", "smtoffset": 0, "type": "input", "width": 1}
(define-fun |fifo_checker_n empty| ((state |fifo_checker_s|)) Bool (= ((_ extract 0 0) (|fifo_checker#10| state)) #b1))
; yosys-smt2-input full 1
; yosys-smt2-wire full 1
; yosys-smt2-witness {"offset": 0, "path": ["\\full"], "smtname": "full", "smtoffset": 0, "type": "input", "width": 1}
(define-fun |fifo_checker_n full| ((state |fifo_checker_s|)) Bool (|fifo_checker#4| state))
(declare-fun |fifo_checker#16| (|fifo_checker_s|) (_ BitVec 8)) ; \rd_data
; yosys-smt2-input rd_data 8
; yosys-smt2-wire rd_data 8
; yosys-smt2-witness {"offset": 0, "path": ["\\rd_data"], "smtname": "rd_data", "smtoffset": 0, "type": "input", "width": 8}
(define-fun |fifo_checker_n rd_data| ((state |fifo_checker_s|)) (_ BitVec 8) (|fifo_checker#16| state))
(declare-fun |fifo_checker#17| (|fifo_checker_s|) Bool) ; \rd_en
; yosys-smt2-input rd_en 1
; yosys-smt2-wire rd_en 1
; yosys-smt2-witness {"offset": 0, "path": ["\\rd_en"], "smtname": "rd_en", "smtoffset": 0, "type": "input", "width": 1}
(define-fun |fifo_checker_n rd_en| ((state |fifo_checker_s|)) Bool (|fifo_checker#17| state))
; yosys-smt2-input rst_n 1
; yosys-smt2-wire rst_n 1
; yosys-smt2-witness {"offset": 0, "path": ["\\rst_n"], "smtname": "rst_n", "smtoffset": 0, "type": "input", "width": 1}
(define-fun |fifo_checker_n rst_n| ((state |fifo_checker_s|)) Bool (= ((_ extract 0 0) (|fifo_checker#8| state)) #b1))
(declare-fun |fifo_checker#18| (|fifo_checker_s|) (_ BitVec 8)) ; \wr_data
; yosys-smt2-input wr_data 8
; yosys-smt2-wire wr_data 8
; yosys-smt2-witness {"offset": 0, "path": ["\\wr_data"], "smtname": "wr_data", "smtoffset": 0, "type": "input", "width": 8}
(define-fun |fifo_checker_n wr_data| ((state |fifo_checker_s|)) (_ BitVec 8) (|fifo_checker#18| state))
(declare-fun |fifo_checker#19| (|fifo_checker_s|) Bool) ; \wr_en
; yosys-smt2-input wr_en 1
; yosys-smt2-wire wr_en 1
; yosys-smt2-witness {"offset": 0, "path": ["\\wr_en"], "smtname": "wr_en", "smtoffset": 0, "type": "input", "width": 1}
(define-fun |fifo_checker_n wr_en| ((state |fifo_checker_s|)) Bool (|fifo_checker#19| state))
(define-fun |fifo_checker#20| ((state |fifo_checker_s|)) (_ BitVec 1) (bvnot (ite (|fifo_checker#15| state) #b1 #b0))) ; $auto$rtlil.cc:3255:Not$162
; yosys-smt2-assume 0 $auto$formalff.cc:987:execute$163
(define-fun |fifo_checker_u 0| ((state |fifo_checker_s|)) Bool (or (= ((_ extract 0 0) (|fifo_checker#20| state)) #b1) (not true))) ; $auto$formalff.cc:987:execute$163
; yosys-smt2-assert 0 assert_full_max
(define-fun |fifo_checker_a 0| ((state |fifo_checker_s|)) Bool (or (= ((_ extract 0 0) (|fifo_checker#0| state)) #b1) (not (= ((_ extract 0 0) (|fifo_checker#1| state)) #b1)))) ; assert_full_max
(define-fun |fifo_checker#21| ((state |fifo_checker_s|)) Bool (not (or  (|fifo_checker#17| state) false))) ; $logic_not$formal_f036e8c3__03_assert_full_max_monitor.sv:114$49_Y
; yosys-smt2-assume 1 assume_no_read_empty
(define-fun |fifo_checker_u 1| ((state |fifo_checker_s|)) Bool (or (|fifo_checker#21| state) (not (= ((_ extract 0 0) (|fifo_checker#12| state)) #b1)))) ; assume_no_read_empty
(define-fun |fifo_checker#22| ((state |fifo_checker_s|)) Bool (not (or  (|fifo_checker#19| state) false))) ; $logic_not$formal_f036e8c3__03_assert_full_max_monitor.sv:92$35_Y
; yosys-smt2-assume 2 assume_no_write_full
(define-fun |fifo_checker_u 2| ((state |fifo_checker_s|)) Bool (or (|fifo_checker#22| state) (not (= ((_ extract 0 0) (|fifo_checker#14| state)) #b1)))) ; assume_no_write_full
(define-fun |fifo_checker_a| ((state |fifo_checker_s|)) Bool 
  (|fifo_checker_a 0| state)
)
(define-fun |fifo_checker_u| ((state |fifo_checker_s|)) Bool (and
  (|fifo_checker_u 0| state)
  (|fifo_checker_u 1| state)
  (|fifo_checker_u 2| state)
))
(define-fun |fifo_checker_i| ((state |fifo_checker_s|)) Bool (and
  (= (= ((_ extract 0 0) (|fifo_checker#0| state)) #b1) true) ; $auto$async2sync.cc:116:execute$130
  (= (= ((_ extract 0 0) (|fifo_checker#1| state)) #b1) false) ; $auto$async2sync.cc:107:execute$126
))
(define-fun |fifo_checker_h| ((state |fifo_checker_s|)) Bool true)
(define-fun |fifo_checker_t| ((state |fifo_checker_s|) (next_state |fifo_checker_s|)) Bool (and
  (= (|fifo_checker#9| state) (|fifo_checker#1| next_state)) ; $auto$async2sync.cc:110:execute$128 $auto$async2sync.cc:107:execute$126
  (= #b0 (|fifo_checker#0| next_state)) ; $auto$async2sync.cc:118:execute$131 $auto$async2sync.cc:116:execute$130
)) ; end of module fifo_checker
; yosys-smt2-topmod fifo_checker
; end of yosys output
